
# File: function_approx.dat

set POINTS := 1 2 3 4 5 6 7 8;
param x1 :=
1 1
2 1
3 2
4 0
5 2
6 11
7 12
8 -1;

param x2 :=
1 1
2 3
3 8
4 3
5 -1
6 66
7 10
8 -1;

param y :=
1 10
2 5
3 12
4 -5
5 9
6 40
7 10
8 3;
